(set-logic QF_S)
(declare-fun var0 () String)
(assert (RegexIn var0 (RegexConcat (RegexPlus (RegexStar (RegexUnion (RegexUnion (RegexUnion (RegexUnion (RegexUnion (RegexPlus (RegexUnion (RegexUnion (Str2Reg "0") (Str2Reg "11")) (RegexUnion (Str2Reg "22") (Str2Reg "33")))) (RegexPlus (RegexPlus (RegexUnion (Str2Reg "44") (Str2Reg "555"))))) (RegexUnion (RegexPlus (RegexStar (RegexStar (Str2Reg "66")))) (RegexPlus (RegexPlus (RegexStar (Str2Reg "7")))))) (RegexUnion (RegexPlus (RegexPlus (RegexStar (RegexStar (Str2Reg "88"))))) (RegexPlus (RegexPlus (RegexUnion (RegexPlus (Str2Reg "9")) (RegexPlus (Str2Reg "aa"))))))) (RegexUnion (RegexPlus (RegexPlus (RegexPlus (RegexStar (RegexStar (Str2Reg "bb")))))) (RegexPlus (RegexStar (RegexStar (RegexUnion (RegexUnion (Str2Reg "c") (Str2Reg "d")) (RegexUnion (Str2Reg "ee") (Str2Reg "f")))))))) (RegexUnion (RegexStar (RegexUnion (RegexUnion (RegexUnion (RegexPlus (RegexStar (Str2Reg "ggg"))) (RegexPlus (RegexUnion (Str2Reg "hhh") (Str2Reg "ii")))) (RegexUnion (RegexPlus (RegexUnion (Str2Reg "j") (Str2Reg "kkk"))) (RegexPlus (RegexUnion (Str2Reg "l") (Str2Reg "m"))))) (RegexUnion (RegexUnion (RegexUnion (RegexPlus (Str2Reg "n")) (RegexPlus (Str2Reg "oo"))) (RegexUnion (RegexStar (Str2Reg "ppp")) (RegexStar (Str2Reg "qqq")))) (RegexUnion (RegexPlus (RegexPlus (Str2Reg "rr"))) (RegexPlus (RegexStar (Str2Reg "ss"))))))) (RegexStar (RegexPlus (RegexPlus (RegexUnion (RegexPlus (RegexPlus (Str2Reg "ttt"))) (RegexPlus (RegexStar (Str2Reg "uu"))))))))))) (RegexStar (RegexStar (RegexStar (RegexPlus (RegexUnion (RegexUnion (RegexPlus (RegexPlus (RegexStar (RegexStar (Str2Reg "vvv"))))) (RegexPlus (RegexPlus (RegexUnion (RegexUnion (Str2Reg "www") (Str2Reg "xxx")) (RegexUnion (Str2Reg "y") (Str2Reg "zz")))))) (RegexUnion (RegexPlus (RegexStar (RegexStar (RegexPlus (Str2Reg "A"))))) (RegexPlus (RegexUnion (RegexPlus (RegexUnion (Str2Reg "B") (Str2Reg "CC"))) (RegexPlus (RegexPlus (Str2Reg "DDD"))))))))))))))
(assert (<= 15 (Length var0)))
(check-sat)